27 11 10 42 59 92 110 94 77 75 90 74 105 120 152 185 215 197 212 211 193 208 224 239 240 241 242 210 209 194 195 179 180 164 147 129 113 112 80 96 111 128 144 146 163 148 149 166 151 136 137 121 58 73 56 57 43 26 41 40 39 72 89 106 138 170 186 171 172 220 221 219 203 187 139 123 108 93 109 125 140 155 154 169 153 122 91 44 28 12 13 29 14 30 46 61 78 62 45 60 76 107 124 156 188 173 174 158 142 126 157 141 189 204 205 190 206 222 238 237 236 233 247 246 245 244 230 214 198 150 133 132 115 99 82 66 65 50 33 49 48 47 64 63 79 95 127 159 143 160 175 223 207 191 192 176 161 145 162 177 178 225 226 243 227 228 229 213 196 181 165 182 199 184 168 135 119 87 38 22 37 21 23 24 25 9 8 7 6 5 36 53 69 70 54 86 118 103 104 88 71 55 85 102 101 84 68 35 51 34 1 0 16 15 31 32 17 18 2 3 4 20 19 52 83 67 81 97 98 114 130 131 116 100 117 134 183 167 200 201 217 249 234 235 218 202 216 248 231 232